102552.4
0 12 21 33 34 46 55 64 56 45 44 57 65 58 59 53 42 43 54 47 35 32 24 25 19 8 9 13 20 23 22 11 10 1 134 126 127 116 110 111 103 100 92 93 82 87 99 104 117 121 133 2 14 18 31 36 48 52 66 60 61 67 51 49 62 63 50 38 39 37 40 41 26 7 6 27 30 17 15 28 29 16 4 5 3 132 130 131 119 106 107 120 118 105 108 129 128 109 94 95 98 96 97 85 72 73 68 84 86 74 75 83 69 76 77 70 81 88 91 90 78 79 71 80 89 101 102 113 112 115 122 125 124 114 123 135